Traveling Salesman Problem/TSP_generados/Aleatorio1621103386_13.tsp
NAME: Aleatorio1621103386_13.tsp
COMMENT: Randomly generated scenario
TYPE: TSP
DIMENSION: 13
EDGE_WEIGHT_TYPE: ATT
NODE_COORD_SECTION
1 49.54 32.94
2 4.36 23.04
3 40.67 16.21
4 15.35 10.89
5 0.85 46.82
6 20.18 42.4
7 34.02 37.3
8 46.16 18.62
9 4.12 28.42
10 0.75 21.85
11 6.4 35.68
12 48.7 3.46
13 0.02 24.49
