Traveling Salesman Problem/TSP_generados/Aleatorio1621103386_13.opt.tour
NAME: Aleatorio1621103386_13.opt.tour
COMMENT: Optimal solution for Aleatorio1621103386_13 (169.30228048886872)
TYPE: TOUR
DIMENSION: 13
TOUR_SECTION
1 7 6 5 11 9 13 10 2 4 12 3 8
-1
EOF
